% seed = 8236026

mint = 37;
% maxt = 110;

nActs = 22;
dur = [0,10,8,3,2,5,8,3,7,1,9,2,4,8,7,8,3,3,7,6,6,0];

nSkills = 4;
sreq = [| 0,0,0,0,
	| 2,0,3,2,
	| 0,2,1,3,
	| 1,3,2,0,
	| 2,1,0,3,
	| 3,2,1,0,
	| 0,2,2,2,
	| 0,2,2,1,
	| 0,1,2,3,
	| 3,1,2,0,
	| 1,2,0,3,
	| 1,2,1,0,
	| 0,2,3,1,
	| 1,3,3,0,
	| 0,2,3,2,
	| 2,0,2,3,
	| 0,2,2,2,
	| 0,1,3,3,
	| 1,1,0,2,
	| 2,3,2,0,
	| 0,3,1,1,
	| 0,0,0,0, |];

nResources = 20;
mastery = [| false,false,true,true,
	| true,false,true,true,
	| false,false,false,true,
	| true,true,false,true,
	| true,true,true,false,
	| false,true,true,true,
	| true,false,true,true,
	| false,false,true,false,
	| false,true,true,false,
	| false,true,false,false,
	| false,false,true,false,
	| true,true,true,false,
	| false,true,false,true,
	| false,true,true,true,
	| false,true,true,false,
	| false,true,false,true,
	| true,true,false,false,
	| false,false,true,false,
	| true,true,false,true,
	| true,true,false,true, |];

nPrecs = 43;
pred = [1,1,1,2,2,2,3,3,3,4,4,4,5,5,5,6,6,6,7,7,7,8,8,9,9,10,11,11,12,13,13,14,14,15,15,15,16,17,18,18,19,20,21];
succ = [2,3,4,10,12,15,12,5,6,5,13,7,9,11,16,9,10,8,9,19,12,17,15,17,21,20,17,19,21,14,15,18,16,18,19,16,20,18,20,21,22,22,22];

nUnrels = 89;
unpred = [2,2,2,2,2,2,2,2,2,2,2,3,3,3,3,4,4,4,5,5,5,5,5,5,5,5,6,6,6,6,6,7,7,7,7,7,7,7,8,8,8,8,8,8,9,9,9,9,9,9,9,9,10,10,10,10,10,10,10,10,10,10,11,11,11,11,11,12,12,12,12,12,12,12,12,13,14,14,14,15,16,16,16,16,17,18,19,19,20];
unsucc = [3,4,5,6,7,8,9,11,13,14,17,4,7,13,14,6,8,10,6,7,8,10,12,13,14,15,7,11,12,13,14,8,10,11,13,14,15,16,9,10,11,12,13,14,10,11,12,13,14,15,16,19,11,12,13,14,15,16,17,18,19,21,12,13,14,15,16,13,14,15,16,17,18,19,20,17,15,17,19,17,17,18,19,21,19,19,20,21,21];

USEFUL_RES = [{},
	{1,2,3,4,5,6,7,8,9,11,12,13,14,15,16,17,18,19,20},
	{1,2,3,4,5,6,7,8,9,10,11,12,13,14,15,16,17,18,19,20},
	{1,2,4,5,6,7,8,9,10,11,12,13,14,15,16,17,18,19,20},
	{1,2,3,4,5,6,7,9,10,12,13,14,15,16,17,19,20},
	{1,2,4,5,6,7,8,9,10,11,12,13,14,15,16,17,18,19,20},
	{1,2,3,4,5,6,7,8,9,10,11,12,13,14,15,16,17,18,19,20},
	{1,2,3,4,5,6,7,8,9,10,11,12,13,14,15,16,17,18,19,20},
	{1,2,3,4,5,6,7,8,9,10,11,12,13,14,15,16,17,18,19,20},
	{1,2,4,5,6,7,8,9,10,11,12,13,14,15,16,17,18,19,20},
	{1,2,3,4,5,6,7,9,10,12,13,14,15,16,17,19,20},
	{1,2,4,5,6,7,8,9,10,11,12,13,14,15,16,17,18,19,20},
	{1,2,3,4,5,6,7,8,9,10,11,12,13,14,15,16,17,18,19,20},
	{1,2,4,5,6,7,8,9,10,11,12,13,14,15,16,17,18,19,20},
	{1,2,3,4,5,6,7,8,9,10,11,12,13,14,15,16,17,18,19,20},
	{1,2,3,4,5,6,7,8,9,11,12,13,14,15,16,17,18,19,20},
	{1,2,3,4,5,6,7,8,9,10,11,12,13,14,15,16,17,18,19,20},
	{1,2,3,4,5,6,7,8,9,10,11,12,13,14,15,16,17,18,19,20},
	{1,2,3,4,5,6,7,9,10,12,13,14,15,16,17,19,20},
	{1,2,4,5,6,7,8,9,10,11,12,13,14,15,16,17,18,19,20},
	{1,2,3,4,5,6,7,8,9,10,11,12,13,14,15,16,17,18,19,20},
	{}];

POTENTIAL_ACT = [{2,3,4,5,6,7,8,9,10,11,12,13,14,15,16,17,18,19,20,21},
	{2,3,4,5,6,7,8,9,10,11,12,13,14,15,16,17,18,19,20,21},
	{2,3,5,7,8,9,11,13,15,16,17,18,19,21},
	{2,3,4,5,6,7,8,9,10,11,12,13,14,15,16,17,18,19,20,21},
	{2,3,4,5,6,7,8,9,10,11,12,13,14,15,16,17,18,19,20,21},
	{2,3,4,5,6,7,8,9,10,11,12,13,14,15,16,17,18,19,20,21},
	{2,3,4,5,6,7,8,9,10,11,12,13,14,15,16,17,18,19,20,21},
	{2,3,4,6,7,8,9,10,12,13,14,15,16,17,18,20,21},
	{2,3,4,5,6,7,8,9,10,11,12,13,14,15,16,17,18,19,20,21},
	{3,4,5,6,7,8,9,10,11,12,13,14,15,17,18,19,20,21},
	{2,3,4,6,7,8,9,10,12,13,14,15,16,17,18,20,21},
	{2,3,4,5,6,7,8,9,10,11,12,13,14,15,16,17,18,19,20,21},
	{2,3,4,5,6,7,8,9,10,11,12,13,14,15,16,17,18,19,20,21},
	{2,3,4,5,6,7,8,9,10,11,12,13,14,15,16,17,18,19,20,21},
	{2,3,4,5,6,7,8,9,10,11,12,13,14,15,16,17,18,19,20,21},
	{2,3,4,5,6,7,8,9,10,11,12,13,14,15,16,17,18,19,20,21},
	{2,3,4,5,6,7,8,9,10,11,12,13,14,15,16,17,18,19,20,21},
	{2,3,4,6,7,8,9,10,12,13,14,15,16,17,18,20,21},
	{2,3,4,5,6,7,8,9,10,11,12,13,14,15,16,17,18,19,20,21},
	{2,3,4,5,6,7,8,9,10,11,12,13,14,15,16,17,18,19,20,21}];
